language Essence 1.3

letting class be function(1 --> 3, 2 --> 2, 3 --> 3, 4 --> 3, 5 --> 3, 6 --> 1, 7 --> 2)
letting deck_length be 32
letting deck_width be 75
letting length be function(1 --> 2, 2 --> 5, 3 --> 6, 4 --> 15, 5 --> 2, 6 --> 16, 7 --> 22)
letting n_classes be 3
letting n_containers be 7
letting separation be function({1, 2} --> 66, {1, 3} --> 31, {2, 3} --> 41)
letting width be function(1 --> 39, 2 --> 40, 3 --> 66, 4 --> 6, 5 --> 1, 6 --> 24, 7 --> 49)
